\ LP format - for model browsing. Use MPS format to capture full model detail.
Minimize
  C0 + C1 + C2 + C3 + C4 + C5 + C6 + C7 + C8 + C9 + C10 + C11 + C12 + C13
   + C14 + C15 + C16 + C17 + C18 + C19 + C20 + C21 + C22 + C23 + C24 + C25
   + C26 + C27 + C28 + C29 + C30 + C31 + C32 + C33 + C34 + C35 + C36 + C37
   + C38 + C39 + C40 + C41 + C42 + C43 + C44 + C45 + C46 + C47 + C48 + C49
   + C50 + C51 + C52 + C53 + C54 + C55 + C56 + C57 + C58 + C59 + C60 + C61
   + C62 + C63 + C64 + C65 + C66 + C67 + C68 + C69 + C70 + C71 + C72 + C73
   + C74 + C75 + C76 + C77 + C78 + C79 + C80
Subject To
 R0: C0 + C1 + C41 >= 1
 R1: C0 + C2 + C28 >= 1
 R2: C0 + C3 + C42 >= 1
 R3: C0 + C4 + C29 >= 1
 R4: C0 + C5 + C43 >= 1
 R5: C0 + C6 + C30 >= 1
 R6: C0 + C7 + C44 >= 1
 R7: C0 + C8 + C31 >= 1
 R8: C0 + C9 + C45 >= 1
 R9: C0 + C10 + C32 >= 1
 R10: C0 + C11 + C46 >= 1
 R11: C0 + C12 + C33 >= 1
 R12: C0 + C13 + C47 >= 1
 R13: C0 + C14 + C34 >= 1
 R14: C0 + C15 + C48 >= 1
 R15: C0 + C16 + C35 >= 1
 R16: C0 + C17 + C49 >= 1
 R17: C0 + C18 + C36 >= 1
 R18: C0 + C19 + C50 >= 1
 R19: C0 + C20 + C37 >= 1
 R20: C0 + C21 + C51 >= 1
 R21: C0 + C22 + C38 >= 1
 R22: C0 + C23 + C52 >= 1
 R23: C0 + C24 + C39 >= 1
 R24: C0 + C25 + C53 >= 1
 R25: C0 + C26 + C40 >= 1
 R26: C0 + C27 + C54 >= 1
 R27: C0 + C55 + C80 >= 1
 R28: C0 + C56 + C79 >= 1
 R29: C0 + C57 + C78 >= 1
 R30: C0 + C58 + C77 >= 1
 R31: C0 + C59 + C76 >= 1
 R32: C0 + C60 + C75 >= 1
 R33: C0 + C61 + C74 >= 1
 R34: C0 + C62 + C73 >= 1
 R35: C0 + C63 + C72 >= 1
 R36: C0 + C64 + C71 >= 1
 R37: C0 + C65 + C70 >= 1
 R38: C0 + C66 + C69 >= 1
 R39: C0 + C67 + C68 >= 1
 R40: C1 + C2 + C42 >= 1
 R41: C1 + C3 + C29 >= 1
 R42: C1 + C4 + C43 >= 1
 R43: C1 + C5 + C30 >= 1
 R44: C1 + C6 + C44 >= 1
 R45: C1 + C7 + C31 >= 1
 R46: C1 + C8 + C45 >= 1
 R47: C1 + C9 + C32 >= 1
 R48: C1 + C10 + C46 >= 1
 R49: C1 + C11 + C33 >= 1
 R50: C1 + C12 + C47 >= 1
 R51: C1 + C13 + C34 >= 1
 R52: C1 + C14 + C48 >= 1
 R53: C1 + C15 + C35 >= 1
 R54: C1 + C16 + C49 >= 1
 R55: C1 + C17 + C36 >= 1
 R56: C1 + C18 + C50 >= 1
 R57: C1 + C19 + C37 >= 1
 R58: C1 + C20 + C51 >= 1
 R59: C1 + C21 + C38 >= 1
 R60: C1 + C22 + C52 >= 1
 R61: C1 + C23 + C39 >= 1
 R62: C1 + C24 + C53 >= 1
 R63: C1 + C25 + C40 >= 1
 R64: C1 + C26 + C27 >= 1
 R65: C1 + C28 + C55 >= 1
 R66: C1 + C54 + C56 >= 1
 R67: C1 + C57 + C80 >= 1
 R68: C1 + C58 + C79 >= 1
 R69: C1 + C59 + C78 >= 1
 R70: C1 + C60 + C77 >= 1
 R71: C1 + C61 + C76 >= 1
 R72: C1 + C62 + C75 >= 1
 R73: C1 + C63 + C74 >= 1
 R74: C1 + C64 + C73 >= 1
 R75: C1 + C65 + C72 >= 1
 R76: C1 + C66 + C71 >= 1
 R77: C1 + C67 + C70 >= 1
 R78: C1 + C68 + C69 >= 1
 R79: C2 + C3 + C43 >= 1
 R80: C2 + C4 + C30 >= 1
 R81: C2 + C5 + C44 >= 1
 R82: C2 + C6 + C31 >= 1
 R83: C2 + C7 + C45 >= 1
 R84: C2 + C8 + C32 >= 1
 R85: C2 + C9 + C46 >= 1
 R86: C2 + C10 + C33 >= 1
 R87: C2 + C11 + C47 >= 1
 R88: C2 + C12 + C34 >= 1
 R89: C2 + C13 + C48 >= 1
 R90: C2 + C14 + C35 >= 1
 R91: C2 + C15 + C49 >= 1
 R92: C2 + C16 + C36 >= 1
 R93: C2 + C17 + C50 >= 1
 R94: C2 + C18 + C37 >= 1
 R95: C2 + C19 + C51 >= 1
 R96: C2 + C20 + C38 >= 1
 R97: C2 + C21 + C52 >= 1
 R98: C2 + C22 + C39 >= 1
 R99: C2 + C23 + C53 >= 1
 R100: C2 + C24 + C40 >= 1
 R101: C2 + C25 + C27 >= 1
 R102: C2 + C26 + C41 >= 1
 R103: C2 + C29 + C56 >= 1
 R104: C2 + C54 + C58 >= 1
 R105: C2 + C55 + C57 >= 1
 R106: C2 + C59 + C80 >= 1
 R107: C2 + C60 + C79 >= 1
 R108: C2 + C61 + C78 >= 1
 R109: C2 + C62 + C77 >= 1
 R110: C2 + C63 + C76 >= 1
 R111: C2 + C64 + C75 >= 1
 R112: C2 + C65 + C74 >= 1
 R113: C2 + C66 + C73 >= 1
 R114: C2 + C67 + C72 >= 1
 R115: C2 + C68 + C71 >= 1
 R116: C2 + C69 + C70 >= 1
 R117: C3 + C4 + C44 >= 1
 R118: C3 + C5 + C31 >= 1
 R119: C3 + C6 + C45 >= 1
 R120: C3 + C7 + C32 >= 1
 R121: C3 + C8 + C46 >= 1
 R122: C3 + C9 + C33 >= 1
 R123: C3 + C10 + C47 >= 1
 R124: C3 + C11 + C34 >= 1
 R125: C3 + C12 + C48 >= 1
 R126: C3 + C13 + C35 >= 1
 R127: C3 + C14 + C49 >= 1
 R128: C3 + C15 + C36 >= 1
 R129: C3 + C16 + C50 >= 1
 R130: C3 + C17 + C37 >= 1
 R131: C3 + C18 + C51 >= 1
 R132: C3 + C19 + C38 >= 1
 R133: C3 + C20 + C52 >= 1
 R134: C3 + C21 + C39 >= 1
 R135: C3 + C22 + C53 >= 1
 R136: C3 + C23 + C40 >= 1
 R137: C3 + C24 + C27 >= 1
 R138: C3 + C25 + C41 >= 1
 R139: C3 + C26 + C28 >= 1
 R140: C3 + C30 + C57 >= 1
 R141: C3 + C54 + C60 >= 1
 R142: C3 + C55 + C59 >= 1
 R143: C3 + C56 + C58 >= 1
 R144: C3 + C61 + C80 >= 1
 R145: C3 + C62 + C79 >= 1
 R146: C3 + C63 + C78 >= 1
 R147: C3 + C64 + C77 >= 1
 R148: C3 + C65 + C76 >= 1
 R149: C3 + C66 + C75 >= 1
 R150: C3 + C67 + C74 >= 1
 R151: C3 + C68 + C73 >= 1
 R152: C3 + C69 + C72 >= 1
 R153: C3 + C70 + C71 >= 1
 R154: C4 + C5 + C45 >= 1
 R155: C4 + C6 + C32 >= 1
 R156: C4 + C7 + C46 >= 1
 R157: C4 + C8 + C33 >= 1
 R158: C4 + C9 + C47 >= 1
 R159: C4 + C10 + C34 >= 1
 R160: C4 + C11 + C48 >= 1
 R161: C4 + C12 + C35 >= 1
 R162: C4 + C13 + C49 >= 1
 R163: C4 + C14 + C36 >= 1
 R164: C4 + C15 + C50 >= 1
 R165: C4 + C16 + C37 >= 1
 R166: C4 + C17 + C51 >= 1
 R167: C4 + C18 + C38 >= 1
 R168: C4 + C19 + C52 >= 1
 R169: C4 + C20 + C39 >= 1
 R170: C4 + C21 + C53 >= 1
 R171: C4 + C22 + C40 >= 1
 R172: C4 + C23 + C27 >= 1
 R173: C4 + C24 + C41 >= 1
 R174: C4 + C25 + C28 >= 1
 R175: C4 + C26 + C42 >= 1
 R176: C4 + C31 + C58 >= 1
 R177: C4 + C54 + C62 >= 1
 R178: C4 + C55 + C61 >= 1
 R179: C4 + C56 + C60 >= 1
 R180: C4 + C57 + C59 >= 1
 R181: C4 + C63 + C80 >= 1
 R182: C4 + C64 + C79 >= 1
 R183: C4 + C65 + C78 >= 1
 R184: C4 + C66 + C77 >= 1
 R185: C4 + C67 + C76 >= 1
 R186: C4 + C68 + C75 >= 1
 R187: C4 + C69 + C74 >= 1
 R188: C4 + C70 + C73 >= 1
 R189: C4 + C71 + C72 >= 1
 R190: C5 + C6 + C46 >= 1
 R191: C5 + C7 + C33 >= 1
 R192: C5 + C8 + C47 >= 1
 R193: C5 + C9 + C34 >= 1
 R194: C5 + C10 + C48 >= 1
 R195: C5 + C11 + C35 >= 1
 R196: C5 + C12 + C49 >= 1
 R197: C5 + C13 + C36 >= 1
 R198: C5 + C14 + C50 >= 1
 R199: C5 + C15 + C37 >= 1
 R200: C5 + C16 + C51 >= 1
 R201: C5 + C17 + C38 >= 1
 R202: C5 + C18 + C52 >= 1
 R203: C5 + C19 + C39 >= 1
 R204: C5 + C20 + C53 >= 1
 R205: C5 + C21 + C40 >= 1
 R206: C5 + C22 + C27 >= 1
 R207: C5 + C23 + C41 >= 1
 R208: C5 + C24 + C28 >= 1
 R209: C5 + C25 + C42 >= 1
 R210: C5 + C26 + C29 >= 1
 R211: C5 + C32 + C59 >= 1
 R212: C5 + C54 + C64 >= 1
 R213: C5 + C55 + C63 >= 1
 R214: C5 + C56 + C62 >= 1
 R215: C5 + C57 + C61 >= 1
 R216: C5 + C58 + C60 >= 1
 R217: C5 + C65 + C80 >= 1
 R218: C5 + C66 + C79 >= 1
 R219: C5 + C67 + C78 >= 1
 R220: C5 + C68 + C77 >= 1
 R221: C5 + C69 + C76 >= 1
 R222: C5 + C70 + C75 >= 1
 R223: C5 + C71 + C74 >= 1
 R224: C5 + C72 + C73 >= 1
 R225: C6 + C7 + C47 >= 1
 R226: C6 + C8 + C34 >= 1
 R227: C6 + C9 + C48 >= 1
 R228: C6 + C10 + C35 >= 1
 R229: C6 + C11 + C49 >= 1
 R230: C6 + C12 + C36 >= 1
 R231: C6 + C13 + C50 >= 1
 R232: C6 + C14 + C37 >= 1
 R233: C6 + C15 + C51 >= 1
 R234: C6 + C16 + C38 >= 1
 R235: C6 + C17 + C52 >= 1
 R236: C6 + C18 + C39 >= 1
 R237: C6 + C19 + C53 >= 1
 R238: C6 + C20 + C40 >= 1
 R239: C6 + C21 + C27 >= 1
 R240: C6 + C22 + C41 >= 1
 R241: C6 + C23 + C28 >= 1
 R242: C6 + C24 + C42 >= 1
 R243: C6 + C25 + C29 >= 1
 R244: C6 + C26 + C43 >= 1
 R245: C6 + C33 + C60 >= 1
 R246: C6 + C54 + C66 >= 1
 R247: C6 + C55 + C65 >= 1
 R248: C6 + C56 + C64 >= 1
 R249: C6 + C57 + C63 >= 1
 R250: C6 + C58 + C62 >= 1
 R251: C6 + C59 + C61 >= 1
 R252: C6 + C67 + C80 >= 1
 R253: C6 + C68 + C79 >= 1
 R254: C6 + C69 + C78 >= 1
 R255: C6 + C70 + C77 >= 1
 R256: C6 + C71 + C76 >= 1
 R257: C6 + C72 + C75 >= 1
 R258: C6 + C73 + C74 >= 1
 R259: C7 + C8 + C48 >= 1
 R260: C7 + C9 + C35 >= 1
 R261: C7 + C10 + C49 >= 1
 R262: C7 + C11 + C36 >= 1
 R263: C7 + C12 + C50 >= 1
 R264: C7 + C13 + C37 >= 1
 R265: C7 + C14 + C51 >= 1
 R266: C7 + C15 + C38 >= 1
 R267: C7 + C16 + C52 >= 1
 R268: C7 + C17 + C39 >= 1
 R269: C7 + C18 + C53 >= 1
 R270: C7 + C19 + C40 >= 1
 R271: C7 + C20 + C27 >= 1
 R272: C7 + C21 + C41 >= 1
 R273: C7 + C22 + C28 >= 1
 R274: C7 + C23 + C42 >= 1
 R275: C7 + C24 + C29 >= 1
 R276: C7 + C25 + C43 >= 1
 R277: C7 + C26 + C30 >= 1
 R278: C7 + C34 + C61 >= 1
 R279: C7 + C54 + C68 >= 1
 R280: C7 + C55 + C67 >= 1
 R281: C7 + C56 + C66 >= 1
 R282: C7 + C57 + C65 >= 1
 R283: C7 + C58 + C64 >= 1
 R284: C7 + C59 + C63 >= 1
 R285: C7 + C60 + C62 >= 1
 R286: C7 + C69 + C80 >= 1
 R287: C7 + C70 + C79 >= 1
 R288: C7 + C71 + C78 >= 1
 R289: C7 + C72 + C77 >= 1
 R290: C7 + C73 + C76 >= 1
 R291: C7 + C74 + C75 >= 1
 R292: C8 + C9 + C49 >= 1
 R293: C8 + C10 + C36 >= 1
 R294: C8 + C11 + C50 >= 1
 R295: C8 + C12 + C37 >= 1
 R296: C8 + C13 + C51 >= 1
 R297: C8 + C14 + C38 >= 1
 R298: C8 + C15 + C52 >= 1
 R299: C8 + C16 + C39 >= 1
 R300: C8 + C17 + C53 >= 1
 R301: C8 + C18 + C40 >= 1
 R302: C8 + C19 + C27 >= 1
 R303: C8 + C20 + C41 >= 1
 R304: C8 + C21 + C28 >= 1
 R305: C8 + C22 + C42 >= 1
 R306: C8 + C23 + C29 >= 1
 R307: C8 + C24 + C43 >= 1
 R308: C8 + C25 + C30 >= 1
 R309: C8 + C26 + C44 >= 1
 R310: C8 + C35 + C62 >= 1
 R311: C8 + C54 + C70 >= 1
 R312: C8 + C55 + C69 >= 1
 R313: C8 + C56 + C68 >= 1
 R314: C8 + C57 + C67 >= 1
 R315: C8 + C58 + C66 >= 1
 R316: C8 + C59 + C65 >= 1
 R317: C8 + C60 + C64 >= 1
 R318: C8 + C61 + C63 >= 1
 R319: C8 + C71 + C80 >= 1
 R320: C8 + C72 + C79 >= 1
 R321: C8 + C73 + C78 >= 1
 R322: C8 + C74 + C77 >= 1
 R323: C8 + C75 + C76 >= 1
 R324: C9 + C10 + C50 >= 1
 R325: C9 + C11 + C37 >= 1
 R326: C9 + C12 + C51 >= 1
 R327: C9 + C13 + C38 >= 1
 R328: C9 + C14 + C52 >= 1
 R329: C9 + C15 + C39 >= 1
 R330: C9 + C16 + C53 >= 1
 R331: C9 + C17 + C40 >= 1
 R332: C9 + C18 + C27 >= 1
 R333: C9 + C19 + C41 >= 1
 R334: C9 + C20 + C28 >= 1
 R335: C9 + C21 + C42 >= 1
 R336: C9 + C22 + C29 >= 1
 R337: C9 + C23 + C43 >= 1
 R338: C9 + C24 + C30 >= 1
 R339: C9 + C25 + C44 >= 1
 R340: C9 + C26 + C31 >= 1
 R341: C9 + C36 + C63 >= 1
 R342: C9 + C54 + C72 >= 1
 R343: C9 + C55 + C71 >= 1
 R344: C9 + C56 + C70 >= 1
 R345: C9 + C57 + C69 >= 1
 R346: C9 + C58 + C68 >= 1
 R347: C9 + C59 + C67 >= 1
 R348: C9 + C60 + C66 >= 1
 R349: C9 + C61 + C65 >= 1
 R350: C9 + C62 + C64 >= 1
 R351: C9 + C73 + C80 >= 1
 R352: C9 + C74 + C79 >= 1
 R353: C9 + C75 + C78 >= 1
 R354: C9 + C76 + C77 >= 1
 R355: C10 + C11 + C51 >= 1
 R356: C10 + C12 + C38 >= 1
 R357: C10 + C13 + C52 >= 1
 R358: C10 + C14 + C39 >= 1
 R359: C10 + C15 + C53 >= 1
 R360: C10 + C16 + C40 >= 1
 R361: C10 + C17 + C27 >= 1
 R362: C10 + C18 + C41 >= 1
 R363: C10 + C19 + C28 >= 1
 R364: C10 + C20 + C42 >= 1
 R365: C10 + C21 + C29 >= 1
 R366: C10 + C22 + C43 >= 1
 R367: C10 + C23 + C30 >= 1
 R368: C10 + C24 + C44 >= 1
 R369: C10 + C25 + C31 >= 1
 R370: C10 + C26 + C45 >= 1
 R371: C10 + C37 + C64 >= 1
 R372: C10 + C54 + C74 >= 1
 R373: C10 + C55 + C73 >= 1
 R374: C10 + C56 + C72 >= 1
 R375: C10 + C57 + C71 >= 1
 R376: C10 + C58 + C70 >= 1
 R377: C10 + C59 + C69 >= 1
 R378: C10 + C60 + C68 >= 1
 R379: C10 + C61 + C67 >= 1
 R380: C10 + C62 + C66 >= 1
 R381: C10 + C63 + C65 >= 1
 R382: C10 + C75 + C80 >= 1
 R383: C10 + C76 + C79 >= 1
 R384: C10 + C77 + C78 >= 1
 R385: C11 + C12 + C52 >= 1
 R386: C11 + C13 + C39 >= 1
 R387: C11 + C14 + C53 >= 1
 R388: C11 + C15 + C40 >= 1
 R389: C11 + C16 + C27 >= 1
 R390: C11 + C17 + C41 >= 1
 R391: C11 + C18 + C28 >= 1
 R392: C11 + C19 + C42 >= 1
 R393: C11 + C20 + C29 >= 1
 R394: C11 + C21 + C43 >= 1
 R395: C11 + C22 + C30 >= 1
 R396: C11 + C23 + C44 >= 1
 R397: C11 + C24 + C31 >= 1
 R398: C11 + C25 + C45 >= 1
 R399: C11 + C26 + C32 >= 1
 R400: C11 + C38 + C65 >= 1
 R401: C11 + C54 + C76 >= 1
 R402: C11 + C55 + C75 >= 1
 R403: C11 + C56 + C74 >= 1
 R404: C11 + C57 + C73 >= 1
 R405: C11 + C58 + C72 >= 1
 R406: C11 + C59 + C71 >= 1
 R407: C11 + C60 + C70 >= 1
 R408: C11 + C61 + C69 >= 1
 R409: C11 + C62 + C68 >= 1
 R410: C11 + C63 + C67 >= 1
 R411: C11 + C64 + C66 >= 1
 R412: C11 + C77 + C80 >= 1
 R413: C11 + C78 + C79 >= 1
 R414: C12 + C13 + C53 >= 1
 R415: C12 + C14 + C40 >= 1
 R416: C12 + C15 + C27 >= 1
 R417: C12 + C16 + C41 >= 1
 R418: C12 + C17 + C28 >= 1
 R419: C12 + C18 + C42 >= 1
 R420: C12 + C19 + C29 >= 1
 R421: C12 + C20 + C43 >= 1
 R422: C12 + C21 + C30 >= 1
 R423: C12 + C22 + C44 >= 1
 R424: C12 + C23 + C31 >= 1
 R425: C12 + C24 + C45 >= 1
 R426: C12 + C25 + C32 >= 1
 R427: C12 + C26 + C46 >= 1
 R428: C12 + C39 + C66 >= 1
 R429: C12 + C54 + C78 >= 1
 R430: C12 + C55 + C77 >= 1
 R431: C12 + C56 + C76 >= 1
 R432: C12 + C57 + C75 >= 1
 R433: C12 + C58 + C74 >= 1
 R434: C12 + C59 + C73 >= 1
 R435: C12 + C60 + C72 >= 1
 R436: C12 + C61 + C71 >= 1
 R437: C12 + C62 + C70 >= 1
 R438: C12 + C63 + C69 >= 1
 R439: C12 + C64 + C68 >= 1
 R440: C12 + C65 + C67 >= 1
 R441: C12 + C79 + C80 >= 1
 R442: C13 + C14 + C27 >= 1
 R443: C13 + C15 + C41 >= 1
 R444: C13 + C16 + C28 >= 1
 R445: C13 + C17 + C42 >= 1
 R446: C13 + C18 + C29 >= 1
 R447: C13 + C19 + C43 >= 1
 R448: C13 + C20 + C30 >= 1
 R449: C13 + C21 + C44 >= 1
 R450: C13 + C22 + C31 >= 1
 R451: C13 + C23 + C45 >= 1
 R452: C13 + C24 + C32 >= 1
 R453: C13 + C25 + C46 >= 1
 R454: C13 + C26 + C33 >= 1
 R455: C13 + C40 + C67 >= 1
 R456: C13 + C54 + C80 >= 1
 R457: C13 + C55 + C79 >= 1
 R458: C13 + C56 + C78 >= 1
 R459: C13 + C57 + C77 >= 1
 R460: C13 + C58 + C76 >= 1
 R461: C13 + C59 + C75 >= 1
 R462: C13 + C60 + C74 >= 1
 R463: C13 + C61 + C73 >= 1
 R464: C13 + C62 + C72 >= 1
 R465: C13 + C63 + C71 >= 1
 R466: C13 + C64 + C70 >= 1
 R467: C13 + C65 + C69 >= 1
 R468: C13 + C66 + C68 >= 1
 R469: C14 + C15 + C28 >= 1
 R470: C14 + C16 + C42 >= 1
 R471: C14 + C17 + C29 >= 1
 R472: C14 + C18 + C43 >= 1
 R473: C14 + C19 + C30 >= 1
 R474: C14 + C20 + C44 >= 1
 R475: C14 + C21 + C31 >= 1
 R476: C14 + C22 + C45 >= 1
 R477: C14 + C23 + C32 >= 1
 R478: C14 + C24 + C46 >= 1
 R479: C14 + C25 + C33 >= 1
 R480: C14 + C26 + C47 >= 1
 R481: C14 + C41 + C68 >= 1
 R482: C14 + C54 + C55 >= 1
 R483: C14 + C56 + C80 >= 1
 R484: C14 + C57 + C79 >= 1
 R485: C14 + C58 + C78 >= 1
 R486: C14 + C59 + C77 >= 1
 R487: C14 + C60 + C76 >= 1
 R488: C14 + C61 + C75 >= 1
 R489: C14 + C62 + C74 >= 1
 R490: C14 + C63 + C73 >= 1
 R491: C14 + C64 + C72 >= 1
 R492: C14 + C65 + C71 >= 1
 R493: C14 + C66 + C70 >= 1
 R494: C14 + C67 + C69 >= 1
 R495: C15 + C16 + C29 >= 1
 R496: C15 + C17 + C43 >= 1
 R497: C15 + C18 + C30 >= 1
 R498: C15 + C19 + C44 >= 1
 R499: C15 + C20 + C31 >= 1
 R500: C15 + C21 + C45 >= 1
 R501: C15 + C22 + C32 >= 1
 R502: C15 + C23 + C46 >= 1
 R503: C15 + C24 + C33 >= 1
 R504: C15 + C25 + C47 >= 1
 R505: C15 + C26 + C34 >= 1
 R506: C15 + C42 + C69 >= 1
 R507: C15 + C54 + C57 >= 1
 R508: C15 + C55 + C56 >= 1
 R509: C15 + C58 + C80 >= 1
 R510: C15 + C59 + C79 >= 1
 R511: C15 + C60 + C78 >= 1
 R512: C15 + C61 + C77 >= 1
 R513: C15 + C62 + C76 >= 1
 R514: C15 + C63 + C75 >= 1
 R515: C15 + C64 + C74 >= 1
 R516: C15 + C65 + C73 >= 1
 R517: C15 + C66 + C72 >= 1
 R518: C15 + C67 + C71 >= 1
 R519: C15 + C68 + C70 >= 1
 R520: C16 + C17 + C30 >= 1
 R521: C16 + C18 + C44 >= 1
 R522: C16 + C19 + C31 >= 1
 R523: C16 + C20 + C45 >= 1
 R524: C16 + C21 + C32 >= 1
 R525: C16 + C22 + C46 >= 1
 R526: C16 + C23 + C33 >= 1
 R527: C16 + C24 + C47 >= 1
 R528: C16 + C25 + C34 >= 1
 R529: C16 + C26 + C48 >= 1
 R530: C16 + C43 + C70 >= 1
 R531: C16 + C54 + C59 >= 1
 R532: C16 + C55 + C58 >= 1
 R533: C16 + C56 + C57 >= 1
 R534: C16 + C60 + C80 >= 1
 R535: C16 + C61 + C79 >= 1
 R536: C16 + C62 + C78 >= 1
 R537: C16 + C63 + C77 >= 1
 R538: C16 + C64 + C76 >= 1
 R539: C16 + C65 + C75 >= 1
 R540: C16 + C66 + C74 >= 1
 R541: C16 + C67 + C73 >= 1
 R542: C16 + C68 + C72 >= 1
 R543: C16 + C69 + C71 >= 1
 R544: C17 + C18 + C31 >= 1
 R545: C17 + C19 + C45 >= 1
 R546: C17 + C20 + C32 >= 1
 R547: C17 + C21 + C46 >= 1
 R548: C17 + C22 + C33 >= 1
 R549: C17 + C23 + C47 >= 1
 R550: C17 + C24 + C34 >= 1
 R551: C17 + C25 + C48 >= 1
 R552: C17 + C26 + C35 >= 1
 R553: C17 + C44 + C71 >= 1
 R554: C17 + C54 + C61 >= 1
 R555: C17 + C55 + C60 >= 1
 R556: C17 + C56 + C59 >= 1
 R557: C17 + C57 + C58 >= 1
 R558: C17 + C62 + C80 >= 1
 R559: C17 + C63 + C79 >= 1
 R560: C17 + C64 + C78 >= 1
 R561: C17 + C65 + C77 >= 1
 R562: C17 + C66 + C76 >= 1
 R563: C17 + C67 + C75 >= 1
 R564: C17 + C68 + C74 >= 1
 R565: C17 + C69 + C73 >= 1
 R566: C17 + C70 + C72 >= 1
 R567: C18 + C19 + C32 >= 1
 R568: C18 + C20 + C46 >= 1
 R569: C18 + C21 + C33 >= 1
 R570: C18 + C22 + C47 >= 1
 R571: C18 + C23 + C34 >= 1
 R572: C18 + C24 + C48 >= 1
 R573: C18 + C25 + C35 >= 1
 R574: C18 + C26 + C49 >= 1
 R575: C18 + C45 + C72 >= 1
 R576: C18 + C54 + C63 >= 1
 R577: C18 + C55 + C62 >= 1
 R578: C18 + C56 + C61 >= 1
 R579: C18 + C57 + C60 >= 1
 R580: C18 + C58 + C59 >= 1
 R581: C18 + C64 + C80 >= 1
 R582: C18 + C65 + C79 >= 1
 R583: C18 + C66 + C78 >= 1
 R584: C18 + C67 + C77 >= 1
 R585: C18 + C68 + C76 >= 1
 R586: C18 + C69 + C75 >= 1
 R587: C18 + C70 + C74 >= 1
 R588: C18 + C71 + C73 >= 1
 R589: C19 + C20 + C33 >= 1
 R590: C19 + C21 + C47 >= 1
 R591: C19 + C22 + C34 >= 1
 R592: C19 + C23 + C48 >= 1
 R593: C19 + C24 + C35 >= 1
 R594: C19 + C25 + C49 >= 1
 R595: C19 + C26 + C36 >= 1
 R596: C19 + C46 + C73 >= 1
 R597: C19 + C54 + C65 >= 1
 R598: C19 + C55 + C64 >= 1
 R599: C19 + C56 + C63 >= 1
 R600: C19 + C57 + C62 >= 1
 R601: C19 + C58 + C61 >= 1
 R602: C19 + C59 + C60 >= 1
 R603: C19 + C66 + C80 >= 1
 R604: C19 + C67 + C79 >= 1
 R605: C19 + C68 + C78 >= 1
 R606: C19 + C69 + C77 >= 1
 R607: C19 + C70 + C76 >= 1
 R608: C19 + C71 + C75 >= 1
 R609: C19 + C72 + C74 >= 1
 R610: C20 + C21 + C34 >= 1
 R611: C20 + C22 + C48 >= 1
 R612: C20 + C23 + C35 >= 1
 R613: C20 + C24 + C49 >= 1
 R614: C20 + C25 + C36 >= 1
 R615: C20 + C26 + C50 >= 1
 R616: C20 + C47 + C74 >= 1
 R617: C20 + C54 + C67 >= 1
 R618: C20 + C55 + C66 >= 1
 R619: C20 + C56 + C65 >= 1
 R620: C20 + C57 + C64 >= 1
 R621: C20 + C58 + C63 >= 1
 R622: C20 + C59 + C62 >= 1
 R623: C20 + C60 + C61 >= 1
 R624: C20 + C68 + C80 >= 1
 R625: C20 + C69 + C79 >= 1
 R626: C20 + C70 + C78 >= 1
 R627: C20 + C71 + C77 >= 1
 R628: C20 + C72 + C76 >= 1
 R629: C20 + C73 + C75 >= 1
 R630: C21 + C22 + C35 >= 1
 R631: C21 + C23 + C49 >= 1
 R632: C21 + C24 + C36 >= 1
 R633: C21 + C25 + C50 >= 1
 R634: C21 + C26 + C37 >= 1
 R635: C21 + C48 + C75 >= 1
 R636: C21 + C54 + C69 >= 1
 R637: C21 + C55 + C68 >= 1
 R638: C21 + C56 + C67 >= 1
 R639: C21 + C57 + C66 >= 1
 R640: C21 + C58 + C65 >= 1
 R641: C21 + C59 + C64 >= 1
 R642: C21 + C60 + C63 >= 1
 R643: C21 + C61 + C62 >= 1
 R644: C21 + C70 + C80 >= 1
 R645: C21 + C71 + C79 >= 1
 R646: C21 + C72 + C78 >= 1
 R647: C21 + C73 + C77 >= 1
 R648: C21 + C74 + C76 >= 1
 R649: C22 + C23 + C36 >= 1
 R650: C22 + C24 + C50 >= 1
 R651: C22 + C25 + C37 >= 1
 R652: C22 + C26 + C51 >= 1
 R653: C22 + C49 + C76 >= 1
 R654: C22 + C54 + C71 >= 1
 R655: C22 + C55 + C70 >= 1
 R656: C22 + C56 + C69 >= 1
 R657: C22 + C57 + C68 >= 1
 R658: C22 + C58 + C67 >= 1
 R659: C22 + C59 + C66 >= 1
 R660: C22 + C60 + C65 >= 1
 R661: C22 + C61 + C64 >= 1
 R662: C22 + C62 + C63 >= 1
 R663: C22 + C72 + C80 >= 1
 R664: C22 + C73 + C79 >= 1
 R665: C22 + C74 + C78 >= 1
 R666: C22 + C75 + C77 >= 1
 R667: C23 + C24 + C37 >= 1
 R668: C23 + C25 + C51 >= 1
 R669: C23 + C26 + C38 >= 1
 R670: C23 + C50 + C77 >= 1
 R671: C23 + C54 + C73 >= 1
 R672: C23 + C55 + C72 >= 1
 R673: C23 + C56 + C71 >= 1
 R674: C23 + C57 + C70 >= 1
 R675: C23 + C58 + C69 >= 1
 R676: C23 + C59 + C68 >= 1
 R677: C23 + C60 + C67 >= 1
 R678: C23 + C61 + C66 >= 1
 R679: C23 + C62 + C65 >= 1
 R680: C23 + C63 + C64 >= 1
 R681: C23 + C74 + C80 >= 1
 R682: C23 + C75 + C79 >= 1
 R683: C23 + C76 + C78 >= 1
 R684: C24 + C25 + C38 >= 1
 R685: C24 + C26 + C52 >= 1
 R686: C24 + C51 + C78 >= 1
 R687: C24 + C54 + C75 >= 1
 R688: C24 + C55 + C74 >= 1
 R689: C24 + C56 + C73 >= 1
 R690: C24 + C57 + C72 >= 1
 R691: C24 + C58 + C71 >= 1
 R692: C24 + C59 + C70 >= 1
 R693: C24 + C60 + C69 >= 1
 R694: C24 + C61 + C68 >= 1
 R695: C24 + C62 + C67 >= 1
 R696: C24 + C63 + C66 >= 1
 R697: C24 + C64 + C65 >= 1
 R698: C24 + C76 + C80 >= 1
 R699: C24 + C77 + C79 >= 1
 R700: C25 + C26 + C39 >= 1
 R701: C25 + C52 + C79 >= 1
 R702: C25 + C54 + C77 >= 1
 R703: C25 + C55 + C76 >= 1
 R704: C25 + C56 + C75 >= 1
 R705: C25 + C57 + C74 >= 1
 R706: C25 + C58 + C73 >= 1
 R707: C25 + C59 + C72 >= 1
 R708: C25 + C60 + C71 >= 1
 R709: C25 + C61 + C70 >= 1
 R710: C25 + C62 + C69 >= 1
 R711: C25 + C63 + C68 >= 1
 R712: C25 + C64 + C67 >= 1
 R713: C25 + C65 + C66 >= 1
 R714: C25 + C78 + C80 >= 1
 R715: C26 + C53 + C80 >= 1
 R716: C26 + C54 + C79 >= 1
 R717: C26 + C55 + C78 >= 1
 R718: C26 + C56 + C77 >= 1
 R719: C26 + C57 + C76 >= 1
 R720: C26 + C58 + C75 >= 1
 R721: C26 + C59 + C74 >= 1
 R722: C26 + C60 + C73 >= 1
 R723: C26 + C61 + C72 >= 1
 R724: C26 + C62 + C71 >= 1
 R725: C26 + C63 + C70 >= 1
 R726: C26 + C64 + C69 >= 1
 R727: C26 + C65 + C68 >= 1
 R728: C26 + C66 + C67 >= 1
 R729: C27 + C28 + C68 >= 1
 R730: C27 + C29 + C55 >= 1
 R731: C27 + C30 + C69 >= 1
 R732: C27 + C31 + C56 >= 1
 R733: C27 + C32 + C70 >= 1
 R734: C27 + C33 + C57 >= 1
 R735: C27 + C34 + C71 >= 1
 R736: C27 + C35 + C58 >= 1
 R737: C27 + C36 + C72 >= 1
 R738: C27 + C37 + C59 >= 1
 R739: C27 + C38 + C73 >= 1
 R740: C27 + C39 + C60 >= 1
 R741: C27 + C40 + C74 >= 1
 R742: C27 + C41 + C61 >= 1
 R743: C27 + C42 + C75 >= 1
 R744: C27 + C43 + C62 >= 1
 R745: C27 + C44 + C76 >= 1
 R746: C27 + C45 + C63 >= 1
 R747: C27 + C46 + C77 >= 1
 R748: C27 + C47 + C64 >= 1
 R749: C27 + C48 + C78 >= 1
 R750: C27 + C49 + C65 >= 1
 R751: C27 + C50 + C79 >= 1
 R752: C27 + C51 + C66 >= 1
 R753: C27 + C52 + C80 >= 1
 R754: C27 + C53 + C67 >= 1
 R755: C28 + C29 + C69 >= 1
 R756: C28 + C30 + C56 >= 1
 R757: C28 + C31 + C70 >= 1
 R758: C28 + C32 + C57 >= 1
 R759: C28 + C33 + C71 >= 1
 R760: C28 + C34 + C58 >= 1
 R761: C28 + C35 + C72 >= 1
 R762: C28 + C36 + C59 >= 1
 R763: C28 + C37 + C73 >= 1
 R764: C28 + C38 + C60 >= 1
 R765: C28 + C39 + C74 >= 1
 R766: C28 + C40 + C61 >= 1
 R767: C28 + C41 + C75 >= 1
 R768: C28 + C42 + C62 >= 1
 R769: C28 + C43 + C76 >= 1
 R770: C28 + C44 + C63 >= 1
 R771: C28 + C45 + C77 >= 1
 R772: C28 + C46 + C64 >= 1
 R773: C28 + C47 + C78 >= 1
 R774: C28 + C48 + C65 >= 1
 R775: C28 + C49 + C79 >= 1
 R776: C28 + C50 + C66 >= 1
 R777: C28 + C51 + C80 >= 1
 R778: C28 + C52 + C67 >= 1
 R779: C28 + C53 + C54 >= 1
 R780: C29 + C30 + C70 >= 1
 R781: C29 + C31 + C57 >= 1
 R782: C29 + C32 + C71 >= 1
 R783: C29 + C33 + C58 >= 1
 R784: C29 + C34 + C72 >= 1
 R785: C29 + C35 + C59 >= 1
 R786: C29 + C36 + C73 >= 1
 R787: C29 + C37 + C60 >= 1
 R788: C29 + C38 + C74 >= 1
 R789: C29 + C39 + C61 >= 1
 R790: C29 + C40 + C75 >= 1
 R791: C29 + C41 + C62 >= 1
 R792: C29 + C42 + C76 >= 1
 R793: C29 + C43 + C63 >= 1
 R794: C29 + C44 + C77 >= 1
 R795: C29 + C45 + C64 >= 1
 R796: C29 + C46 + C78 >= 1
 R797: C29 + C47 + C65 >= 1
 R798: C29 + C48 + C79 >= 1
 R799: C29 + C49 + C66 >= 1
 R800: C29 + C50 + C80 >= 1
 R801: C29 + C51 + C67 >= 1
 R802: C29 + C52 + C54 >= 1
 R803: C29 + C53 + C68 >= 1
 R804: C30 + C31 + C71 >= 1
 R805: C30 + C32 + C58 >= 1
 R806: C30 + C33 + C72 >= 1
 R807: C30 + C34 + C59 >= 1
 R808: C30 + C35 + C73 >= 1
 R809: C30 + C36 + C60 >= 1
 R810: C30 + C37 + C74 >= 1
 R811: C30 + C38 + C61 >= 1
 R812: C30 + C39 + C75 >= 1
 R813: C30 + C40 + C62 >= 1
 R814: C30 + C41 + C76 >= 1
 R815: C30 + C42 + C63 >= 1
 R816: C30 + C43 + C77 >= 1
 R817: C30 + C44 + C64 >= 1
 R818: C30 + C45 + C78 >= 1
 R819: C30 + C46 + C65 >= 1
 R820: C30 + C47 + C79 >= 1
 R821: C30 + C48 + C66 >= 1
 R822: C30 + C49 + C80 >= 1
 R823: C30 + C50 + C67 >= 1
 R824: C30 + C51 + C54 >= 1
 R825: C30 + C52 + C68 >= 1
 R826: C30 + C53 + C55 >= 1
 R827: C31 + C32 + C72 >= 1
 R828: C31 + C33 + C59 >= 1
 R829: C31 + C34 + C73 >= 1
 R830: C31 + C35 + C60 >= 1
 R831: C31 + C36 + C74 >= 1
 R832: C31 + C37 + C61 >= 1
 R833: C31 + C38 + C75 >= 1
 R834: C31 + C39 + C62 >= 1
 R835: C31 + C40 + C76 >= 1
 R836: C31 + C41 + C63 >= 1
 R837: C31 + C42 + C77 >= 1
 R838: C31 + C43 + C64 >= 1
 R839: C31 + C44 + C78 >= 1
 R840: C31 + C45 + C65 >= 1
 R841: C31 + C46 + C79 >= 1
 R842: C31 + C47 + C66 >= 1
 R843: C31 + C48 + C80 >= 1
 R844: C31 + C49 + C67 >= 1
 R845: C31 + C50 + C54 >= 1
 R846: C31 + C51 + C68 >= 1
 R847: C31 + C52 + C55 >= 1
 R848: C31 + C53 + C69 >= 1
 R849: C32 + C33 + C73 >= 1
 R850: C32 + C34 + C60 >= 1
 R851: C32 + C35 + C74 >= 1
 R852: C32 + C36 + C61 >= 1
 R853: C32 + C37 + C75 >= 1
 R854: C32 + C38 + C62 >= 1
 R855: C32 + C39 + C76 >= 1
 R856: C32 + C40 + C63 >= 1
 R857: C32 + C41 + C77 >= 1
 R858: C32 + C42 + C64 >= 1
 R859: C32 + C43 + C78 >= 1
 R860: C32 + C44 + C65 >= 1
 R861: C32 + C45 + C79 >= 1
 R862: C32 + C46 + C66 >= 1
 R863: C32 + C47 + C80 >= 1
 R864: C32 + C48 + C67 >= 1
 R865: C32 + C49 + C54 >= 1
 R866: C32 + C50 + C68 >= 1
 R867: C32 + C51 + C55 >= 1
 R868: C32 + C52 + C69 >= 1
 R869: C32 + C53 + C56 >= 1
 R870: C33 + C34 + C74 >= 1
 R871: C33 + C35 + C61 >= 1
 R872: C33 + C36 + C75 >= 1
 R873: C33 + C37 + C62 >= 1
 R874: C33 + C38 + C76 >= 1
 R875: C33 + C39 + C63 >= 1
 R876: C33 + C40 + C77 >= 1
 R877: C33 + C41 + C64 >= 1
 R878: C33 + C42 + C78 >= 1
 R879: C33 + C43 + C65 >= 1
 R880: C33 + C44 + C79 >= 1
 R881: C33 + C45 + C66 >= 1
 R882: C33 + C46 + C80 >= 1
 R883: C33 + C47 + C67 >= 1
 R884: C33 + C48 + C54 >= 1
 R885: C33 + C49 + C68 >= 1
 R886: C33 + C50 + C55 >= 1
 R887: C33 + C51 + C69 >= 1
 R888: C33 + C52 + C56 >= 1
 R889: C33 + C53 + C70 >= 1
 R890: C34 + C35 + C75 >= 1
 R891: C34 + C36 + C62 >= 1
 R892: C34 + C37 + C76 >= 1
 R893: C34 + C38 + C63 >= 1
 R894: C34 + C39 + C77 >= 1
 R895: C34 + C40 + C64 >= 1
 R896: C34 + C41 + C78 >= 1
 R897: C34 + C42 + C65 >= 1
 R898: C34 + C43 + C79 >= 1
 R899: C34 + C44 + C66 >= 1
 R900: C34 + C45 + C80 >= 1
 R901: C34 + C46 + C67 >= 1
 R902: C34 + C47 + C54 >= 1
 R903: C34 + C48 + C68 >= 1
 R904: C34 + C49 + C55 >= 1
 R905: C34 + C50 + C69 >= 1
 R906: C34 + C51 + C56 >= 1
 R907: C34 + C52 + C70 >= 1
 R908: C34 + C53 + C57 >= 1
 R909: C35 + C36 + C76 >= 1
 R910: C35 + C37 + C63 >= 1
 R911: C35 + C38 + C77 >= 1
 R912: C35 + C39 + C64 >= 1
 R913: C35 + C40 + C78 >= 1
 R914: C35 + C41 + C65 >= 1
 R915: C35 + C42 + C79 >= 1
 R916: C35 + C43 + C66 >= 1
 R917: C35 + C44 + C80 >= 1
 R918: C35 + C45 + C67 >= 1
 R919: C35 + C46 + C54 >= 1
 R920: C35 + C47 + C68 >= 1
 R921: C35 + C48 + C55 >= 1
 R922: C35 + C49 + C69 >= 1
 R923: C35 + C50 + C56 >= 1
 R924: C35 + C51 + C70 >= 1
 R925: C35 + C52 + C57 >= 1
 R926: C35 + C53 + C71 >= 1
 R927: C36 + C37 + C77 >= 1
 R928: C36 + C38 + C64 >= 1
 R929: C36 + C39 + C78 >= 1
 R930: C36 + C40 + C65 >= 1
 R931: C36 + C41 + C79 >= 1
 R932: C36 + C42 + C66 >= 1
 R933: C36 + C43 + C80 >= 1
 R934: C36 + C44 + C67 >= 1
 R935: C36 + C45 + C54 >= 1
 R936: C36 + C46 + C68 >= 1
 R937: C36 + C47 + C55 >= 1
 R938: C36 + C48 + C69 >= 1
 R939: C36 + C49 + C56 >= 1
 R940: C36 + C50 + C70 >= 1
 R941: C36 + C51 + C57 >= 1
 R942: C36 + C52 + C71 >= 1
 R943: C36 + C53 + C58 >= 1
 R944: C37 + C38 + C78 >= 1
 R945: C37 + C39 + C65 >= 1
 R946: C37 + C40 + C79 >= 1
 R947: C37 + C41 + C66 >= 1
 R948: C37 + C42 + C80 >= 1
 R949: C37 + C43 + C67 >= 1
 R950: C37 + C44 + C54 >= 1
 R951: C37 + C45 + C68 >= 1
 R952: C37 + C46 + C55 >= 1
 R953: C37 + C47 + C69 >= 1
 R954: C37 + C48 + C56 >= 1
 R955: C37 + C49 + C70 >= 1
 R956: C37 + C50 + C57 >= 1
 R957: C37 + C51 + C71 >= 1
 R958: C37 + C52 + C58 >= 1
 R959: C37 + C53 + C72 >= 1
 R960: C38 + C39 + C79 >= 1
 R961: C38 + C40 + C66 >= 1
 R962: C38 + C41 + C80 >= 1
 R963: C38 + C42 + C67 >= 1
 R964: C38 + C43 + C54 >= 1
 R965: C38 + C44 + C68 >= 1
 R966: C38 + C45 + C55 >= 1
 R967: C38 + C46 + C69 >= 1
 R968: C38 + C47 + C56 >= 1
 R969: C38 + C48 + C70 >= 1
 R970: C38 + C49 + C57 >= 1
 R971: C38 + C50 + C71 >= 1
 R972: C38 + C51 + C58 >= 1
 R973: C38 + C52 + C72 >= 1
 R974: C38 + C53 + C59 >= 1
 R975: C39 + C40 + C80 >= 1
 R976: C39 + C41 + C67 >= 1
 R977: C39 + C42 + C54 >= 1
 R978: C39 + C43 + C68 >= 1
 R979: C39 + C44 + C55 >= 1
 R980: C39 + C45 + C69 >= 1
 R981: C39 + C46 + C56 >= 1
 R982: C39 + C47 + C70 >= 1
 R983: C39 + C48 + C57 >= 1
 R984: C39 + C49 + C71 >= 1
 R985: C39 + C50 + C58 >= 1
 R986: C39 + C51 + C72 >= 1
 R987: C39 + C52 + C59 >= 1
 R988: C39 + C53 + C73 >= 1
 R989: C40 + C41 + C54 >= 1
 R990: C40 + C42 + C68 >= 1
 R991: C40 + C43 + C55 >= 1
 R992: C40 + C44 + C69 >= 1
 R993: C40 + C45 + C56 >= 1
 R994: C40 + C46 + C70 >= 1
 R995: C40 + C47 + C57 >= 1
 R996: C40 + C48 + C71 >= 1
 R997: C40 + C49 + C58 >= 1
 R998: C40 + C50 + C72 >= 1
 R999: C40 + C51 + C59 >= 1
 R1000: C40 + C52 + C73 >= 1
 R1001: C40 + C53 + C60 >= 1
 R1002: C41 + C42 + C55 >= 1
 R1003: C41 + C43 + C69 >= 1
 R1004: C41 + C44 + C56 >= 1
 R1005: C41 + C45 + C70 >= 1
 R1006: C41 + C46 + C57 >= 1
 R1007: C41 + C47 + C71 >= 1
 R1008: C41 + C48 + C58 >= 1
 R1009: C41 + C49 + C72 >= 1
 R1010: C41 + C50 + C59 >= 1
 R1011: C41 + C51 + C73 >= 1
 R1012: C41 + C52 + C60 >= 1
 R1013: C41 + C53 + C74 >= 1
 R1014: C42 + C43 + C56 >= 1
 R1015: C42 + C44 + C70 >= 1
 R1016: C42 + C45 + C57 >= 1
 R1017: C42 + C46 + C71 >= 1
 R1018: C42 + C47 + C58 >= 1
 R1019: C42 + C48 + C72 >= 1
 R1020: C42 + C49 + C59 >= 1
 R1021: C42 + C50 + C73 >= 1
 R1022: C42 + C51 + C60 >= 1
 R1023: C42 + C52 + C74 >= 1
 R1024: C42 + C53 + C61 >= 1
 R1025: C43 + C44 + C57 >= 1
 R1026: C43 + C45 + C71 >= 1
 R1027: C43 + C46 + C58 >= 1
 R1028: C43 + C47 + C72 >= 1
 R1029: C43 + C48 + C59 >= 1
 R1030: C43 + C49 + C73 >= 1
 R1031: C43 + C50 + C60 >= 1
 R1032: C43 + C51 + C74 >= 1
 R1033: C43 + C52 + C61 >= 1
 R1034: C43 + C53 + C75 >= 1
 R1035: C44 + C45 + C58 >= 1
 R1036: C44 + C46 + C72 >= 1
 R1037: C44 + C47 + C59 >= 1
 R1038: C44 + C48 + C73 >= 1
 R1039: C44 + C49 + C60 >= 1
 R1040: C44 + C50 + C74 >= 1
 R1041: C44 + C51 + C61 >= 1
 R1042: C44 + C52 + C75 >= 1
 R1043: C44 + C53 + C62 >= 1
 R1044: C45 + C46 + C59 >= 1
 R1045: C45 + C47 + C73 >= 1
 R1046: C45 + C48 + C60 >= 1
 R1047: C45 + C49 + C74 >= 1
 R1048: C45 + C50 + C61 >= 1
 R1049: C45 + C51 + C75 >= 1
 R1050: C45 + C52 + C62 >= 1
 R1051: C45 + C53 + C76 >= 1
 R1052: C46 + C47 + C60 >= 1
 R1053: C46 + C48 + C74 >= 1
 R1054: C46 + C49 + C61 >= 1
 R1055: C46 + C50 + C75 >= 1
 R1056: C46 + C51 + C62 >= 1
 R1057: C46 + C52 + C76 >= 1
 R1058: C46 + C53 + C63 >= 1
 R1059: C47 + C48 + C61 >= 1
 R1060: C47 + C49 + C75 >= 1
 R1061: C47 + C50 + C62 >= 1
 R1062: C47 + C51 + C76 >= 1
 R1063: C47 + C52 + C63 >= 1
 R1064: C47 + C53 + C77 >= 1
 R1065: C48 + C49 + C62 >= 1
 R1066: C48 + C50 + C76 >= 1
 R1067: C48 + C51 + C63 >= 1
 R1068: C48 + C52 + C77 >= 1
 R1069: C48 + C53 + C64 >= 1
 R1070: C49 + C50 + C63 >= 1
 R1071: C49 + C51 + C77 >= 1
 R1072: C49 + C52 + C64 >= 1
 R1073: C49 + C53 + C78 >= 1
 R1074: C50 + C51 + C64 >= 1
 R1075: C50 + C52 + C78 >= 1
 R1076: C50 + C53 + C65 >= 1
 R1077: C51 + C52 + C65 >= 1
 R1078: C51 + C53 + C79 >= 1
 R1079: C52 + C53 + C66 >= 1
Bounds
 C0 <= 1
 C1 <= 1
 C2 <= 1
 C3 <= 1
 C4 <= 1
 C5 <= 1
 C6 <= 1
 C7 <= 1
 C8 <= 1
 C9 <= 1
 C10 <= 1
 C11 <= 1
 C12 <= 1
 C13 <= 1
 C14 <= 1
 C15 <= 1
 C16 <= 1
 C17 <= 1
 C18 <= 1
 C19 <= 1
 C20 <= 1
 C21 <= 1
 C22 <= 1
 C23 <= 1
 C24 <= 1
 C25 <= 1
 C26 <= 1
 C27 <= 1
 C28 <= 1
 C29 <= 1
 C30 <= 1
 C31 <= 1
 C32 <= 1
 C33 <= 1
 C34 <= 1
 C35 <= 1
 C36 <= 1
 C37 <= 1
 C38 <= 1
 C39 <= 1
 C40 <= 1
 C41 <= 1
 C42 <= 1
 C43 <= 1
 C44 <= 1
 C45 <= 1
 C46 <= 1
 C47 <= 1
 C48 <= 1
 C49 <= 1
 C50 <= 1
 C51 <= 1
 C52 <= 1
 C53 <= 1
 C54 <= 1
 C55 <= 1
 C56 <= 1
 C57 <= 1
 C58 <= 1
 C59 <= 1
 C60 <= 1
 C61 <= 1
 C62 <= 1
 C63 <= 1
 C64 <= 1
 C65 <= 1
 C66 <= 1
 C67 <= 1
 C68 <= 1
 C69 <= 1
 C70 <= 1
 C71 <= 1
 C72 <= 1
 C73 <= 1
 C74 <= 1
 C75 <= 1
 C76 <= 1
 C77 <= 1
 C78 <= 1
 C79 <= 1
 C80 <= 1
End
